--- Job andean.gms Start 12/13/18 10:24:36 24.7.4 r58773 LEX-LEG x86 64bit/Linux
GAMS 24.7.4   Copyright (C) 1987-2016 GAMS Development. All rights reserved
Licensee: Remigijus Paulavicius, Single User License     S170731:0859AO-LNX
          Imperial College London, Dept. of Chemical Engineering    DC13449
          License for teaching and research at degree granting institutions
          remigijus.paulavicius@imperial.ac.uk                             
--- Starting compilation
--- andean.gms(1440) 3 Mb
--- Starting execution: elapsed 0:00:00.006
--- andean.gms(1099) 4 Mb
--- Generating LP model capcheck
--- andean.gms(1101) 4 Mb
---   87 rows  68 columns  204 non-zeroes
--- Executing CPLEX: elapsed 0:00:00.017

IBM ILOG CPLEX   24.7.4 r58773 Released Sep 19, 2016 LEG x86 64bit/Linux      
Cplex 12.6.3.0

*** Error Cannot open parameter file "/home/renigijus/gams/opt-mod-lib/gamslib/andean/cplex.opt"
*** Error Error code = 2; No such file or directory
Reading data...
Starting Cplex...
Space for names approximately 0.00 Mb
Use option 'names no' to turn use of names off
Tried aggregator 1 time.
LP Presolve eliminated 75 rows and 52 columns.
Aggregator did 6 substitutions.
Reduced LP has 6 rows, 10 columns, and 15 nonzeros.
Presolve time = 0.00 sec. (0.04 ticks)

Iteration log . . .
Iteration:     1   Dual infeasibility =            36.619999
Iteration:     6   Dual objective     =         70570.395313
LP status(1): optimal
Cplex Time: 0.00sec (det. 0.07 ticks)

Optimal solution found.
Objective :       70562.948038

--- Restarting execution
--- andean.gms(1101) 2 Mb
--- Reading solution for model capcheck
--- andean.gms(1118) 3 Mb
--- Generating LP model capcheck
--- andean.gms(1120) 3 Mb
---   87 rows  68 columns  204 non-zeroes
--- Executing CPLEX: elapsed 0:00:00.040

IBM ILOG CPLEX   24.7.4 r58773 Released Sep 19, 2016 LEG x86 64bit/Linux      
Cplex 12.6.3.0

*** Error Cannot open parameter file "/home/renigijus/gams/opt-mod-lib/gamslib/andean/cplex.opt"
*** Error Error code = 2; No such file or directory
Reading data...
Starting Cplex...
Space for names approximately 0.00 Mb
Use option 'names no' to turn use of names off
Tried aggregator 1 time.
LP Presolve eliminated 75 rows and 52 columns.
Aggregator did 6 substitutions.
Reduced LP has 6 rows, 10 columns, and 15 nonzeros.
Presolve time = 0.00 sec. (0.04 ticks)
Using devex.
LP status(1): optimal
Cplex Time: 0.00sec (det. 0.11 ticks)

Optimal solution found.
Objective :       71518.684138

--- Restarting execution
--- andean.gms(1120) 2 Mb
--- Reading solution for model capcheck
--- andean.gms(1137) 3 Mb
--- Generating LP model capcheck
--- andean.gms(1139) 3 Mb
---   143 rows  108 columns  323 non-zeroes
--- Executing CPLEX: elapsed 0:00:00.065

IBM ILOG CPLEX   24.7.4 r58773 Released Sep 19, 2016 LEG x86 64bit/Linux      
Cplex 12.6.3.0

*** Error Cannot open parameter file "/home/renigijus/gams/opt-mod-lib/gamslib/andean/cplex.opt"
*** Error Error code = 2; No such file or directory
Reading data...
Starting Cplex...
Space for names approximately 0.01 Mb
Use option 'names no' to turn use of names off
Tried aggregator 1 time.
LP Presolve eliminated 129 rows and 90 columns.
Aggregator did 8 substitutions.
Reduced LP has 6 rows, 10 columns, and 15 nonzeros.
Presolve time = 0.00 sec. (0.06 ticks)
Using devex.

Iteration log . . .
Iteration:     1    Objective     =        165641.958658
LP status(1): optimal
Cplex Time: 0.00sec (det. 0.20 ticks)

Optimal solution found.
Objective :      168393.022138

--- Restarting execution
--- andean.gms(1139) 2 Mb
--- Reading solution for model capcheck
--- andean.gms(1309) 3 Mb
--- Generating MIP model andean1
--- andean.gms(1311) 5 Mb
---   1,725 rows  4,897 columns  17,252 non-zeroes
---   30 discrete-columns
--- Executing CONVERT: elapsed 0:00:00.110

Convert 2.0      24.7.4 r58773 Released Sep 19, 2016 LEG x86 64bit/Linux      

--- Using Option File
Reading parameter(s) from "/home/renigijus/gams/opt-mod-lib/gamslib/andean/convert.opt"
>>  ampl andean-scalar.mod
Finished reading from "/home/renigijus/gams/opt-mod-lib/gamslib/andean/convert.opt"
--- Writing Ampl      : andean-scalar.mod

--- Restarting execution
--- andean.gms(1311) 3 Mb
--- Reading solution for model andean1
--- andean.gms(1439) 4 Mb
*** Status: Normal completion
--- Job andean.gms Stop 12/13/18 10:24:36 elapsed 0:00:00.146
